c Random generated cnf formula, satisfiable: true
p cnf 10 50
-4 -9 6 0
-2 7 -8 0
6 2 -1 0
8 9 6 0
-10 5 3 0
-8 -5 4 0
5 2 -9 0
-10 2 8 0
1 -5 -2 0
2 10 -8 0
2 -7 4 0
8 6 1 0
10 -3 -7 0
-7 10 -8 0
-8 6 9 0
8 -6 -4 0
9 -6 -3 0
7 -9 -2 0
-7 -10 -3 0
10 -4 -1 0
4 -7 5 0
-5 -8 -3 0
-1 -2 -8 0
-4 -2 -7 0
-8 3 6 0
-6 5 7 0
-4 -1 3 0
1 4 -10 0
-4 -1 3 0
-1 2 -9 0
1 7 -4 0
9 -7 -10 0
-9 7 4 0
3 6 -7 0
-8 -6 4 0
-2 -4 9 0
-2 -4 8 0
10 -1 2 0
10 -3 -2 0
2 4 -5 0
-10 -7 -2 0
2 6 9 0
-1 -9 2 0
4 3 -7 0
-2 -7 6 0
4 8 -10 0
2 4 -10 0
-7 6 4 0
5 4 3 0
3 6 -2 0
